row=9;
column=9;
Board=[|0,4,0,0,8,0,3,0,0|0,0,0,0,1,6,0,0,4|7,0,0,6,4,0,0,0,0|0,2,0,0,0,0,8,0,6|0,1,0,0,0,0,0,0,0|0,0,3,0,0,0,2,8,7|4,0,0,0,0,0,0,0,0|8,0,0,0,6,0,0,0,0|6,5,0,8,0,1,4,2,3|];
Region=[|1,1,1,2,2,2,2,2,3|1,1,1,1,1,2,2,3,3|4,4,1,5,2,2,3,3,3|4,4,4,5,5,3,3,6,3|7,4,4,5,5,5,6,6,6|7,4,4,5,8,6,6,9,6|7,7,5,5,8,6,9,9,6|7,7,7,8,8,9,9,9,9|7,7,8,8,8,8,8,9,9|];
horizontal=[|2,0,2,0,0,0,0,0|1,0,2,2,0,0,2,0|0,0,0,2,0,0,0,1|0,0,0,0,0,0,0,0|2,0,0,1,0,2,0,2|1,2,0,0,2,0,1,2|0,0,0,2,1,0,2,1|0,2,0,1,0,0,2,0|0,0,0,1,2,0,2,0|];
vertical=[|0,0,0,0,0,0,1,0,1|0,0,0,0,1,0,0,2,0|0,2,1,2,0,0,0,0,0|2,2,0,2,1,0,0,0,2|0,1,0,0,0,0,0,2,0|1,1,0,0,0,0,0,0,1|0,0,1,0,0,0,0,0,2|0,0,0,1,0,0,2,0,0|];
